NAME : S-U-6-18.1969.tour
COMMENT : Length = 1969
COMMENT : Found by LKH [Keld Helsgaun] Thu May 17 23:18:23 2018
TYPE : TOUR
DIMENSION : 31
TOUR_SECTION
1
27
20
18
30
29
28
24
21
17
9
2
3
14
25
22
23
13
7
15
16
12
10
26
19
4
8
11
6
5
31
-1
EOF
